variable spacing equal 25
variable sigma_atom equal 1 # Just a random constant to get the simulation going

######################### Setting the sytem ####################################
## Getting conversion factors and constructing the dielectric
# Neccessary quantities in lj units:
variable T equal 3      # The temperature in LJ units
# Our length unit (set):
variable lengthunit equal 1e-9   # In SI
variable convert_energy_nanounits_to_ljunits equal 1e21
# Physical constants in SI:
variable kb equal 1.38064852e-23
variable epsilon0 equal 8.85e-12
variable elementalcharge equal 1.602176634e-19
variable T0 equal 310.0 # The temperature we want in K  # We will use this to find the energy unit, which we in turn will use to find the dielectric correction
# Converting
variable energyunit equal ${T0}/T*${kb}
#variable energyunit_ljinnano equal ${convert_energy_nanounits_to_ljunits}*${energyunit} # For conversion from units nano to units lj
variable energyunit_ljinnano equal 1.426670137333333  #### TRIED TO CALCULATE IN LAMMPS, BUT IT DIDN'T WORK ## For T = 3, T0 = 310
variable qratio equal 12.719558614248152
#variable qratio equal ${elementalcharge}/sqrt(4*PI*${epsilon0}*${lengthunit}*${energyunit})
#variable conversionfactor equal 1.0/${qratio}^2
variable conversionfactor equal 0.008818190747174473 #0.006180959786301432 (forgot to divide by E)
variable ljepsilon_standard equal 1.042
variable ljepsilon equal ${ljepsilon_standard}/${energyunit_ljinnano}
variable ljcutoff equal 1.122
variable ljsigma equal 1.0
variable atomcutoff equal 1.122*${sigma_atom}

print 'energyunit_ljinnano: ${energyunit_ljinnano}'

## Set variables
variable Kbond equal 200.0/${energyunit_ljinnano}
variable kappa equal 1.0
variable debyecutoff equal 3.0
variable charge equal -1                  # The dielectric will be changed to set the Debye interaction to the correct value
variable dt equal 0.00045                 # This timestep seems to work well for our simulations (standard ljunits timestep is too big)
variable M equal 9
variable N equal 101
variable vzmin equal -0.01
variable vzmax equal -0.00000001

# Setting system properties
units lj
dimension 3
boundary p p p
atom_style full
pair_style lj/cut/coul/debye ${kappa} ${debyecutoff} # 
bond_style harmonic

# Making the atoms:
read_data data.chaingrids_substrate_N909_Nchains9_Ly3_gridspacing${spacing}_twofixed_charge${charge}_mass1
# Do I even use the log-file anymore?

velocity all create $T 87287 # I can reset the velocities.

variable sigma_inter equal (${sigma_atom}+${ljsigma})/2
variable cutoff_inter equal 1.122*${sigma_inter}

pair_coeff 1 1 ${ljepsilon} ${ljsigma} ${ljcutoff} ${debyecutoff}
pair_coeff 1 2 ${ljepsilon} ${ljsigma} ${ljcutoff} ${debyecutoff}
pair_coeff 2 2 ${ljepsilon} ${ljsigma} ${ljcutoff} ${debyecutoff}
pair_coeff * 4 ${ljepsilon} ${ljsigma} ${ljcutoff} 0               # Er det greit å sette disse generelt her? Kan vel resette etterpå?
pair_coeff * 3 ${ljepsilon} ${sigma_inter} ${cutoff_inter} 0
bond_coeff * ${Kbond} 1.0

############################ Prepare simulation #####################################

# Minimize really messes up the structure
#minimize 1.0e-4 1.0e-6 100 1000

group movingmonomers type 2

neighbor 1.0 bin
#neigh_modify once no every 1 delay 0 check yes

dielectric ${conversionfactor}
timestep ${dt}

fix lgvfix movingmonomers langevin $T $T 100.0 699483
fix 1 movingmonomers nve

############################ Equilibrate ##############################################
run 200000 # I only need to do this once for each d, so I can afford to make the simulation pretty long.

# write_data?
write_data data.chaingrids_substrate_N909_Nchains9_Ly3_gridspacing${spacing}_twofixed_charge${charge}_mass1_nostiffness_equilibrated nocoeff
