label nloop
variable spacing index 4

######################### Setting the sytem ####################################
# Set variables
variable theta0 equal 180.0
variable Kangle equal 20.0
variable Kbond equal 200.0
variable kappa equal 1.0
variable debyecutoff equal 3.0
variable T equal 310
variable mass equal 0.00081
variable charge equal -1

# 3d Lennard-Jones gas
units nano
dimension 3
boundary p p p
atom_style full
pair_style coul/debye ${kappa} ${debyecutoff} # 
bond_style harmonic
angle_style harmonic

# Making the atoms:
read_data data.chaingrids_N909_Nchains9_Ly3_gridspacing${spacing}_twofixed_charge${charge}_mass${mass} #data.chaingrids_N909_Nchains9_Ly3_gridspacing${spacing}_twofixed_charge${charge} #_straight #data.chaingrids_N909_Nchains9_Ly3_twofixed_charge${charge}_mass${mass} #_straight
log log.chaingrid_quadratic_M9N101_Langevin_gridspacing${spacing}_Kangle${Kangle}_Kbond${Kbond}_debye_kappa${kappa}_debyecutoff${debyecutoff}_charge${charge}_T$T_theta0is180_mass${mass}_twofirst_are_fixed
#log log.test_charge${charge}

velocity all create $T 87287 # I can reset the velocities.

pair_coeff * *
bond_coeff * ${Kbond} 1.0
angle_coeff * ${Kangle} ${theta0}

############################ Prepare simulation #####################################

# Minimize really messes up the structure
#minimize 1.0e-4 1.0e-6 100 1000

group movingmonomers type 2

neighbor 1.0 bin
#neigh_modify once no every 1 delay 0 check yes

#fix wallmembrane movingmonomers wall/lj126 zlo 0.0 ${ljparam} 1.0 2.5 units box

fix lgvfix movingmonomers langevin $T $T 100.0 699483
fix 1 movingmonomers nve

compute bendingenergy all pe angle
compute stretchingenergy all pe bond
compute coulombenergy all pe pair

variable dt equal 0.00045*sqrt(${mass})
variable original_equilsteps equal 1333400
variable equilsteps equal ceil(${original_equilsteps}/sqrt(${mass}))
variable original_runsteps equal 10000000
variable runsteps equal ceil(${original_runsteps}/sqrt(${mass}))
print "The time step is now ${dt}"
print "Equilsteps step is now ${equilsteps}"
print "The time step is now ${runsteps}"

timestep ${dt}

############################ Equilibrate ##############################################
run ${equilsteps}

####################### Run and write to file #########################################

dump 1 all custom 10000 chaingrid_quadratic_M9N101_Langevin_gridspacing${spacing}_Kangle${Kangle}_Kbond${Kbond}_debye_kappa${kappa}_debyecutoff${debyecutoff}_charge${charge}_T$T_theta0is180_mass${mass}_twofirst_are_fixed.lammpstrj id type mol x y z vx vy vz # For visualization
#dump 1 all custom 10000 test_charge${charge}.lammpstrj id type mol x y z vx vy vz # For visualization
thermo_style custom step time temp pe ke etotal c_bendingenergy c_stretchingenergy c_coulombenergy
thermo 1000
run ${runsteps}
clear
next charge
jump SELF nloop
