label nloop
variable spacing index 7 #1 #10 5

######################### Setting the sytem ####################################
# Set variables
variable theta0 equal 180.0
variable Kangle equal 20.0
variable Kbond equal 200.0
variable kappa equal 1.0
variable debyecutoff equal 3.0
variable T equal 310
variable charge equal -1

# Setting system properties
units nano
dimension 3
boundary p p p
atom_style full
pair_style coul/debye ${kappa} ${debyecutoff} # 
bond_style harmonic
angle_style harmonic

# Making the atoms:
read_data data.chaingrids_N909_Nchains9_Ly3_gridspacing${spacing}_twofixed_charge${charge} #_straight
log log.chaingrid_quadratic_M9N101_gridspacing${spacing}_Langevin_Kangle${Kangle}_Kbond${Kbond}_debye_kappa${kappa}_debyecutoff${debyecutoff}_charge${charge}_T$T_theta0is180_twofirst_are_fixed_with_rgyr

velocity all create $T 87287 # I can reset the velocities.

pair_coeff * *
bond_coeff * ${Kbond} 1.0
angle_coeff * ${Kangle} ${theta0}

############################ Prepare simulation #####################################

# Minimize really messes up the structure
#minimize 1.0e-4 1.0e-6 100 1000

# Making groups for integration and processing:
group movingmonomers type 2  # The atoms that will move
group chain1 id 1:101        # The atoms in chain 1
group chain2 id 102:202      # The atoms in chain 2
group chain3 id 203:303      # The atoms in chain 3
group chain4 id 304:404      # The atoms in chain 4
group chain5 id 405:505      # The atoms in chain 5
group chain6 id 506:606      # The atoms in chain 6
group chain7 id 607:707      # The atoms in chain 7
group chain8 id 708:808      # The atoms in chain 8
group chain9 id 809:909      # The atoms in chain 1

neighbor 1.0 bin
#neigh_modify once no every 1 delay 0 check yes

#fix wallmembrane movingmonomers wall/lj126 zlo 0.0 ${ljparam} 1.0 2.5 units box

# For performing the simulations:
fix lgvfix movingmonomers langevin $T $T 100.0 699483
fix 1 movingmonomers nve

# The energy computes:
compute bendingenergy all pe angle
compute stretchingenergy all pe bond
compute coulombenergy all pe pair

# The radius of gyration computes:
compute rgyr_chain1 chain1 gyration
compute rgyr_chain2 chain2 gyration
compute rgyr_chain3 chain3 gyration
compute rgyr_chain4 chain4 gyration
compute rgyr_chain5 chain5 gyration
compute rgyr_chain6 chain6 gyration
compute rgyr_chain7 chain7 gyration
compute rgyr_chain8 chain8 gyration
compute rgyr_chain9 chain9 gyration

############################ Equilibrate ##############################################
run 1333400

####################### Run and write to file #########################################

dump 1 all custom 10000 chaingrid_quadratic_M9N101_gridspacing${spacing}_Langevin_Kangle${Kangle}_Kbond${Kbond}_debye_kappa${kappa}_debyecutoff${debyecutoff}_charge${charge}_T$T_theta0is180_twofirst_are_fixed.lammpstrj id type mol x y z vx vy vz # For visualization
thermo_style custom step time temp pe ke etotal c_bendingenergy c_stretchingenergy c_coulombenergy c_rgyrchain1 c_rgyrchain2 c_rgyrchain3 c_rgyrchain4 c_rgyrchain5 c_rgyrchain6 c_rgyrchain7 c_rgyrchain8 c_rgyrchain9
thermo 10000
run 10000000
clear
next spacing
jump SELF nloop
