label nloop
variable spacing index 300 #1 #10 5

######################### Setting the sytem ####################################
# Set variables
variable theta0 equal 180.0
variable Kangle equal 20.0
variable Kbond equal 200.0
variable kappa equal 1.0
variable debyecutoff equal 3.0
variable T equal 310
variable charge equal -1

# Setting system properties
units nano
dimension 3
boundary p p p
atom_style full
pair_style coul/debye ${kappa} ${debyecutoff} # 
bond_style harmonic
angle_style harmonic

# Making the atoms:
read_data data.chaingrids_N909_Nchains9_Ly3_gridspacing${spacing}_twofixed_charge${charge}_mass1 # Uncomment end of this filename sometimes #_straight
log log.chaingrid_quadratic_M9N101_gridspacing${spacing}_Langevin_Kangle${Kangle}_Kbond${Kbond}_debye_kappa${kappa}_debyecutoff${debyecutoff}_charge${charge}_T$T_theta0is180_twofirst_are_fixed

velocity all create $T 87287 # I can reset the velocities.

pair_coeff * *
bond_coeff * ${Kbond} 1.0
angle_coeff * ${Kangle} ${theta0}

############################ Prepare simulation #####################################

# Minimize really messes up the structure
#minimize 1.0e-4 1.0e-6 100 1000

group movingmonomers type 2

neighbor 1.0 bin
#neigh_modify once no every 1 delay 0 check yes

#fix wallmembrane movingmonomers wall/lj126 zlo 0.0 ${ljparam} 1.0 2.5 units box

fix lgvfix movingmonomers langevin $T $T 100.0 699483
fix 1 movingmonomers nve

compute bendingenergy all pe angle
compute stretchingenergy all pe bond
compute coulombenergy all pe pair

############################ Equilibrate ##############################################
run 1333400

####################### Run and write to file #########################################

dump 1 all custom 10000 chaingrid_quadratic_M9N101_gridspacing${spacing}_Langevin_Kangle${Kangle}_Kbond${Kbond}_debye_kappa${kappa}_debyecutoff${debyecutoff}_charge${charge}_T$T_theta0is180_twofirst_are_fixed.lammpstrj id type mol x y z vx vy vz # For visualization
thermo_style custom step time temp pe ke etotal c_bendingenergy c_stretchingenergy c_coulombenergy
thermo 1000
run 10000000
clear
next spacing
jump SELF nloop
