label nloop
variable spacing index 40 100 #1 #10 5

######################### Setting the sytem ####################################
## Getting conversion factors and constructing the dielectric
# Neccessary quantities in lj units:
variable T equal 3      # The temperature in LJ units
# Our length unit (set):
variable lengthunit equal 1e-9   # In SI
variable convert_energy_nanounits_to_ljunits equal 1e21
# Physical constants in SI:
variable kb equal 1.38064852e-23
variable epsilon0 equal 8.85e-12
variable elementalcharge equal 1.602176634e-19
variable T0 equal 310.0 # The temperature we want in K  # We will use this to find the energy unit, which we in turn will use to find the dielectric correction
# Converting
variable energyunit equal ${T0}/T*${kb}
#variable energyunit_ljinnano equal ${convert_energy_nanounits_to_ljunits}*${energyunit} # For conversion from units nano to units lj
variable energyunit_ljinnano equal 1.426670137333333  #### TRIED TO CALCULATE IN LAMMPS, BUT IT DIDN'T WORK ## For T = 3, T0 = 310
variable qratio equal 12.719558614248152
#variable qratio equal ${elementalcharge}/sqrt(4*PI*${epsilon0}*${lengthunit}*${energyunit})
#variable conversionfactor equal 1.0/${qratio}^2
variable conversionfactor equal 0.006180959786301432

print 'energyunit_ljinnano: ${energyunit_ljinnano}'

## Set variables
variable theta0 equal 180.0
variable Kangle equal 20.0/${energyunit_ljinnano}
variable Kbond equal 200.0/${energyunit_ljinnano}
variable kappa equal 1.0
variable debyecutoff equal 3.0
variable charge equal -1                  # The dielectric will be changed to set the Debye interaction to the correct value
variable dt equal 0.00045                 # This timestep seems to work well for our simulations (standard ljunits timestep is too big)


# Setting system properties
units lj
dimension 3
boundary p p p
atom_style full
pair_style coul/debye ${kappa} ${debyecutoff} # 
bond_style harmonic
angle_style harmonic

# Making the atoms:
read_data data.chaingrids_N909_Nchains9_Ly3_gridspacing${spacing}_twofixed_charge${charge}#_mass1 # Uncomment end of this filename sometimes #_straight
log log.chaingrid_quadratic_M9N101_ljunits_gridspacing${spacing}_Langevin_Kangle${Kangle}_Kbond${Kbond}_debye_kappa${kappa}_debyecutoff${debyecutoff}_chargeelementary${charge}_T$T_theta0is180_correctconversions_twofirst_are_fixed

velocity all create $T 87287 # I can reset the velocities.

pair_coeff * *
bond_coeff * ${Kbond} 1.0
angle_coeff * ${Kangle} ${theta0}

############################ Prepare simulation #####################################

# Minimize really messes up the structure
#minimize 1.0e-4 1.0e-6 100 1000

group movingmonomers type 2

neighbor 1.0 bin
#neigh_modify once no every 1 delay 0 check yes

dielectric ${conversionfactor}
timestep ${dt}

#fix wallmembrane movingmonomers wall/lj126 zlo 0.0 ${ljparam} 1.0 2.5 units box

fix lgvfix movingmonomers langevin $T $T 100.0 699483
fix 1 movingmonomers nve

compute bendingenergy all pe angle
compute stretchingenergy all pe bond
compute coulombenergy all pe pair

############################ Equilibrate ##############################################
run 1333400

####################### Run and write to file #########################################

dump 1 all custom 10000 chaingrid_quadratic_M9N101_ljunits_gridspacing${spacing}_Langevin_Kangle${Kangle}_Kbond${Kbond}_debye_kappa${kappa}_debyecutoff${debyecutoff}_chargeelementary${charge}_T$T_theta0is180_correctconversions_twofirst_are_fixed.lammpstrj id type mol x y z vx vy vz # For visualization
thermo_style custom step time temp pe ke etotal c_bendingenergy c_stretchingenergy c_coulombenergy
thermo 1000
run 10000000
clear
next spacing
jump SELF nloop
