# Spacing
variable spacing equal 100

######################### Setting the sytem ####################################
# Set variables
variable theta0 equal 180.0
variable ljparam equal 1.042 # Taken from Bathe GAG paper
variable ljcutoff equal 2.0^(1.0/6.0) 
variable sigma equal 1.0
variable Kbond equal 2000.0
variable Kangle equal 20.0
variable T equal 310
variable kappa equal 1.0
variable debyecutoff equal 3.0

# 3d Lennard-Jones gas
units nano
dimension 3
boundary p p f
atom_style full
#pair_style lj/cut/coul/debye ${kappa} ${ljcutoff} ${debyecutoff} 
pair_style lj/cut ${ljcutoff}
#pair_modify shift yes # To have WCA # Does not help
bond_style harmonic
angle_style harmonic

# Making the atoms:
read_data data.chaingrids_N909_Nchains9_Ly3_gridspacing${spacing}_twofixed_charge-1 #_straight
log log.chaingrid_quadratic_M9N101_gridspacing${spacing}_lj_epsilon${ljparam}_sigma${sigma}_ljcutoff${ljcutoff}_kappa${kappa}_Langevin_Kangle${Kangle}_Kbond${Kbond}_T$T_theta0is180_twofirst_are_fixed_withwall

velocity all create $T 87287 # I can reset the velocities.

pair_coeff * * ${ljparam} ${sigma}
bond_coeff * ${Kbond} 1.0
angle_coeff * ${Kangle} ${theta0}

############################ Make snapshot #####################################

# Minimize really messes up the structure
#minimize 1.0e-4 1.0e-6 100 1000


# Making groups for integration and processing:
group movingmonomers type 2  # The atoms that will move
group chain1 id 1:101        # The atoms in chain 1
group chain2 id 102:202      # The atoms in chain 2
group chain3 id 203:303      # The atoms in chain 3
group chain4 id 304:404      # The atoms in chain 4
group chain5 id 405:505      # The atoms in chain 5
group chain6 id 506:606      # The atoms in chain 6
group chain7 id 607:707      # The atoms in chain 7
group chain8 id 708:808      # The atoms in chain 8
group chain9 id 809:909      # The atoms in chain 9

neighbor 1.0 bin
#neigh_modify once no every 1 delay 0 check yes

fix wallmembrane movingmonomers wall/lj126 zlo 0.0 ${ljparam} 1.0 2.5 units box

fix lgvfix movingmonomers langevin $T $T 100.0 699483
fix 1 movingmonomers nve


# The energy computes:
compute bendingenergy all pe angle
compute stretchingenergy all pe bond
compute coulombenergy all pe pair

# The radius of gyration computes:
compute rgyrchain1 chain1 gyration
compute rgyrchain2 chain2 gyration
compute rgyrchain3 chain3 gyration
compute rgyrchain4 chain4 gyration
compute rgyrchain5 chain5 gyration
compute rgyrchain6 chain6 gyration
compute rgyrchain7 chain7 gyration
compute rgyrchain8 chain8 gyration
compute rgyrchain9 chain9 gyration

############################ Equilibrate ##############################################
run 1333400
#run 132200 # I ran this with dump 1 all custom 1. Didn't tell me anything useful. #Test. With spacing=100, it crashes at 132268 

####################### Run and write to file #########################################


#log log.chaingrid_quadratic_M9N101_ljdebye_epsilon${ljparam}_sigma${sigma}_ljcutoff${ljcutoff}_kappa${kappa}_debyecutoff${debyecutoff}_Langevin_wall${ljparam}_Kangle${Kangle}_Kbond${Kbond}_T$T_theta0is180_twofirst_are_fixed
#dump 1 all custom 10000 chaingrid_quadratic_M9N101_ljdebye_epsilon${ljparam}_sigma${sigma}_ljcutoff${ljcutoff}_kappa${kappa}_debyecutoff${debyecutoff}_Langevin_wall${ljparam}_Kangle${Kangle}_Kbond${Kbond}_T$T_theta0is180_twofirst_are_fixed.lammpstrj id type mol x y z vx vy vz # For visualization

dump 1 all custom 10000 chaingrid_quadratic_M9N101_gridspacing${spacing}_lj_epsilon${ljparam}_sigma${sigma}_ljcutoff${ljcutoff}_kappa${kappa}_Langevin_Kangle${Kangle}_Kbond${Kbond}_T$T_theta0is180_twofirst_are_fixed_withwall.lammpstrj id type mol x y z vx vy vz # For visualization
thermo_style custom step time temp pe ke etotal c_bendingenergy c_stretchingenergy c_coulombenergy c_rgyrchain1 c_rgyrchain2 c_rgyrchain3 c_rgyrchain4 c_rgyrchain5 c_rgyrchain6 c_rgyrchain7 c_rgyrchain8 c_rgyrchain9
thermo 10000
run 10000000
