label nloop
variable spacing index 40#10 #10 5

######################### Setting the sytem ####################################
# Set variables
variable theta0 equal 180.0
variable ljparam equal 1.042 # Taken from Bathe GAG paper
variable Kangle equal 20.0
variable Kbond equal 200.0
variable kappa equal 1.0
variable debyecutoff equal 3.0
variable T equal 310
variable charge equal -1.9
variable M equal 8
variable N equal 808
variable mass equal 0.00081

# Setting system properties
units nano
dimension 3
boundary p p f # Since we have included a wall
atom_style full
pair_style coul/debye 1.0 3.0#${kappa} ${debyecutoff} # 
bond_style harmonic
angle_style harmonic

# Making the atoms:
#read_data data.hexatethered_N$N_Nchains$M_gridspacing${spacing}_twofixed_charge${charge}_mass${mass} #_straight 
read_data data.hexatethered_N808_Nchains8_gridspacing5_twofixed_charge-1.9_mass0.00081 #_straight 

print $N

log log.hexatethered_N$N_Nchains$M_gridspacing${spacing}_twofixed_charge${charge}_mass${mass}_Langevin_Kangle${Kangle}_Kbond${Kbond}_debye_kappa${kappa}_debyecutoff${debyecutoff}_charge${charge}_T$T_theta0is180_withwall
#read_data data.hexatethered_N$N_Nchains$M_gridspacing${spacing}_twofixed_charge${charge}_mass${mass} #_straight
#log log.hexatethered_N$N_Nchains$M_gridspacing${spacing}_twofixed_charge${charge}_mass${mass}_Langevin_Kangle${Kangle}_Kbond${Kbond}_debye_kappa${kappa}_debyecutoff${debyecutoff}_charge${charge}_T$T_theta0is180

velocity all create $T 87287 # I can reset the velocities.

pair_coeff * *
bond_coeff * ${Kbond} 1.0
angle_coeff * ${Kangle} ${theta0}

############################ Prepare simulation #####################################

# Minimize really messes up the structure
#minimize 1.0e-4 1.0e-6 100 1000

group movingmonomers type 2

neighbor 1.0 bin
#neigh_modify once no every 1 delay 0 check yes

fix wallmembrane movingmonomers wall/lj126 zlo 0.0 ${ljparam} 1.0 2.5 units box

fix lgvfix movingmonomers langevin $T $T 100.0 699483
fix 1 movingmonomers nve

compute bendingenergy all pe angle
compute stretchingenergy all pe bond
compute coulombenergy all pe pair

############################ Equilibrate ##############################################
run 1333400

####################### Run and write to file #########################################

dump 1 all custom 10000 hexatethered_N$N_Nchains$M_gridspacing${spacing}_twofixed_charge${charge}_mass${mass}_Langevin_Kangle${Kangle}_Kbond${Kbond}_debye_kappa${kappa}_debyecutoff${debyecutoff}_charge${charge}_T$T_theta0is180_withwall.lammpstrj id type mol x y z vx vy vz # For visualization
thermo_style custom step time temp pe ke etotal c_bendingenergy c_stretchingenergy c_coulombenergy
thermo 1000
run 10000000
clear
next spacing
jump SELF nloop
