label nloop
variable spacing index 200 #100 300 400

######################### Setting the system ####################################
# Set variables
variable theta0 equal 180.0
variable ljparam equal 1.042 # Taken from Bathe GAG paper
variable Kangle equal 20.0
variable Kbond equal 200.0
variable kappa equal 1.0
variable debyecutoff equal 3.0
variable T equal 310
variable charge equal -1
variable M equal 1
variable N equal 101
variable Ly equal 1
variable Nall equal $M*$N
variable mass equal 1

# Setting system properties
units nano
dimension 3
boundary p p f
atom_style full
pair_style coul/debye ${kappa} ${debyecutoff} # 
bond_style harmonic
angle_style harmonic

# Making the atoms:
read_data data.chaingrids_N${Nall}_Nchains$M_Ly${Ly}_gridspacing${spacing}_twofixed_charge${charge}_mass${mass} #_straight #_straight
log log.chaingrid_quadratic_M$MN$N_gridspacing${spacing}_Langevin_wall${ljparam}_Kangle${Kangle}_Kbond${Kbond}_debye_kappa${kappa}_debyecutoff${debyecutoff}_charge${charge}_T$T_theta0is180_twofirst_are_fixed_with_rgyr

velocity all create $T 87287 # I can reset the velocities.

pair_coeff * *
bond_coeff * ${Kbond} 1.0
angle_coeff * ${Kangle} ${theta0}

############################ Prepare simulation #####################################

# Minimize really messes up the structure
#minimize 1.0e-4 1.0e-6 100 1000

# Making groups for integration and processing:
group movingmonomers type 2  # The atoms that will move
group chain1 id 1:$N         # The atoms in chain 1

neighbor 1.0 bin
#neigh_modify once no every 1 delay 0 check yes

fix wallmembrane movingmonomers wall/lj126 zlo 0.0 ${ljparam} 1.0 2.5 units box

# For performing the simulations:
fix lgvfix movingmonomers langevin $T $T 100.0 699483
fix 1 movingmonomers nve

# The energy computes:
compute bendingenergy all pe angle
compute stretchingenergy all pe bond
compute coulombenergy all pe pair

# The radius of gyration computes:
compute rgyrchain1 chain1 gyration

############################ Equilibrate ##############################################
run 1333400

####################### Run and write to file #########################################

dump 1 all custom 10000 chaingrid_quadratic_M$MN$N_gridspacing${spacing}_Langevin_wall${ljparam}_Kangle${Kangle}_Kbond${Kbond}_debye_kappa${kappa}_debyecutoff${debyecutoff}_charge${charge}_T$T_theta0is180_twofirst_are_fixed.lammpstrj id type mol x y z vx vy vz # For visualization
thermo_style custom step time temp pe ke etotal c_bendingenergy c_stretchingenergy c_coulombenergy c_rgyrchain1
thermo 10000
run 10000000
clear
next spacing
jump SELF nloop
