##################### NOT FINISHED YET!!! NEED TO LOOK STUFF UP!!! 

label nloop
variable spacing index 5#5 10#40 100 #1 #10 5
variable sigma_atom equal 2.0 # Vary this?
variable pmass equal 1.5  # Mass of the particle # Is this reasonable?

######################### Setting the sytem ####################################
## Getting conversion factors and constructing the dielectric
# Neccessary quantities in lj units:
variable T equal 3      # The temperature in LJ units
# Our length unit (set):
variable lengthunit equal 1e-9   # In SI
variable convert_energy_nanounits_to_ljunits equal 1e21
# Physical constants in SI:
variable kb equal 1.38064852e-23
variable epsilon0 equal 8.85e-12
variable elementalcharge equal 1.602176634e-19
variable T0 equal 310.0 # The temperature we want in K  # We will use this to find the energy unit, which we in turn will use to find the dielectric correction
# Converting
variable energyunit equal ${T0}/T*${kb}
#variable energyunit_ljinnano equal ${convert_energy_nanounits_to_ljunits}*${energyunit} # For conversion from units nano to units lj
variable energyunit_ljinnano equal 1.426670137333333  #### TRIED TO CALCULATE IN LAMMPS, BUT IT DIDN'T WORK ## For T = 3, T0 = 310
variable qratio equal 12.719558614248152
#variable qratio equal ${elementalcharge}/sqrt(4*PI*${epsilon0}*${lengthunit}*${energyunit})
#variable conversionfactor equal 1.0/${qratio}^2
variable conversionfactor equal 0.008818190747174473 #0.006180959786301432 (forgot to divide by E)
variable ljepsilon_standard equal 1.042
variable ljepsilon equal ${ljepsilon_standard}/${energyunit_ljinnano}
variable ljcutoff equal 1.0 # Vary this?
variable ljsigma equal 1.0 # What should this be?

print 'energyunit_ljinnano: ${energyunit_ljinnano}'

## Set variables
variable theta0 equal 180.0
variable Kangle equal 20.0/${energyunit_ljinnano}
variable Kbond equal 200.0/${energyunit_ljinnano}
variable kappa equal 1.0
variable debyecutoff equal 3.0
variable charge equal -1                  # The dielectric will be changed to set the Debye interaction to the correct value
variable dt equal 0.00045                 # This timestep seems to work well for our simulations (standard ljunits timestep is too big)
variable M equal 9
variable N equal 101 


# Setting system properties
units lj
dimension 3
boundary p p p
atom_style full
pair_style lj/cut/coul/debye ${kappa} ${debyecutoff} # 
bond_style harmonic
angle_style harmonic

# Making the atoms:
read_data data.chaingrids_N909_Nchains9_Ly3_gridspacing${spacing}_twofixed_charge${charge}_extraatomtype#_mass1 # Uncomment end of this filename sometimes #_straight
log log.particle_in_chaingrid_quadratic_M9N101_ljunits_gridspacing${spacing}_Langevin_Kangle${Kangle}_Kbond${Kbond}_debye_kappa${kappa}_debyecutoff${debyecutoff}_chargeelementary${charge}_effectivedielectric${conversionfactor}_T$T_theta0is180_pmass${pmass} #_correctconversions_twofirst_are_fixed #The file name gets too long

velocity all create $T 87287 # I can reset the velocities.

pair_coeff 1 1 ${ljepsilon} ${ljsigma} ${ljcutoff} ${debyecutoff}
pair_coeff 1 2 ${ljepsilon} ${ljsigma} ${ljcutoff} ${debyecutoff}
pair_coeff 2 2 ${ljepsilon} ${ljsigma} ${ljcutoff} ${debyecutoff}
pair_coeff * 3 ${ljepsilon} ${sigma_atom} 0 # Is this how you turn off Debye?
bond_coeff * ${Kbond} 1.0
angle_coeff * ${Kangle} ${theta0}

############################ Prepare simulation #####################################

# Minimize really messes up the structure
#minimize 1.0e-4 1.0e-6 100 1000

group movingmonomers type 2

neighbor 1.0 bin
#neigh_modify once no every 1 delay 0 check yes

dielectric ${conversionfactor}
timestep ${dt}

#fix wallmembrane movingmonomers wall/lj126 zlo 0.0 ${ljparam} 1.0 2.5 units box

fix lgvfix movingmonomers langevin $T $T 100.0 699483
fix 1 movingmonomers nve

compute bendingenergy all pe angle
compute stretchingenergy all pe bond
compute coulombenergy all pe pair

############################ Equilibrate ##############################################
run 1000 # Don't need to shake it up that much

############################# Add atom ################################################

# Adding an atom moving around in the matrix

create_atoms 3 single 1.5 1.5 3.0 # Hope this works. Might crash, so will minimize (or try it and see what happens)
# Default for create_atoms is charge=0.0

variable atomcutoff equal 2^{1/6.0}*${sigma_atom}
variable atom_molID equal ${M}+1
set atom 3 mol ${atom_molID}
mass 3 1.5 # Not sure if this is a sensible mass...

group freeatom type 3
group movingatoms type 2 3

unfix lgvfix
unfix 1
fix lgvfix movingatoms langevin $T $T 100.0 699483
fix 1 movingatoms nve


############################ Equilibrate ##############################################
# On minimize:
# For the first criterion, the specified energy tolerance etol is unitless; it is met when the energy change between successive iterations divided by the energy magnitude is less than or equal to the tolerance. For example, a setting of 1.0e-4 for etol means an energy tolerance of one part in 10^4. For the damped dynamics minimizers this check is not performed for a few steps after velocities are reset to 0, otherwise the minimizer would prematurely converge.
minimize 1.0e-4 1.0e-6 100 1000 # etol ftol maxiter maxeval

run 1333400


####################### Run and write to file #########################################

compute meansquaredistance all msd # For ALL or just for the atom?
compute meansquaredistance_freeatom freeatom msd

#dump 1 all custom 10000 chaingrid_quadratic_M9N101_ljunits_gridspacing${spacing}_Langevin_Kangle${Kangle}_Kbond${Kbond}_debye_kappa${kappa}_debyecutoff${debyecutoff}_chargeelementary${charge}_effectivedielectric${conversionfactor}_T$T_theta0is180_correctconversions_twofirst_are_fixed.lammpstrj id type mol x y z vx vy vz # For visualization # THE FILE NAME GETS TOO LONG
dump 1 all custom 10000 particle_in_chaingrid_quadratic_M9N101_ljunits_gridspacing${spacing}_Langevin_Kangle${Kangle}_Kbond${Kbond}_debye_kappa${kappa}_debyecutoff${debyecutoff}_chargeelementary${charge}_effectivedielectric${conversionfactor}_T$T_theta0is180_pmass${pmass}.lammpstrj id type mol x y z vx vy vz # For visualization
dump 2 freeatom custom 10000 particleonly_particle_in_chaingrid_quadratic_M9N101_ljunits_gridspacing${spacing}_Langevin_Kangle${Kangle}_Kbond${Kbond}_debye_kappa${kappa}_debyecutoff${debyecutoff}_chargeelementary${charge}_effectivedielectric${conversionfactor}_T$T_theta0is180_pmass${pmass}.lammpstrj id type mol x y z vx vy vz # For visualization
thermo_style custom step time temp pe ke etotal c_bendingenergy c_stretchingenergy c_coulombenergy c_meansquaredistance[4] c_meansquaredistance_freeatom[4]
thermo 1000
run 10000000
clear
next spacing
jump SELF nloop
